* Problem:    TOY 
* Class:      LP
* Rows:       1
* Columns:    3
* Non-zeros:  3
* Format:     Free MPS
*
NAME TOY
ROWS
 E B
COLUMNS
 R1 B 1
 R2 B -1
 R3 B -1
BOUNDS
 LO BND1 R1 0
 UP BND1 R1 10
 LO BND1 R2 0
 UP BND1 R2 9999
 LO BND1 R3 0
 UP BND1 R3 9999
ENDATA
